id: 1265
name: pb-simp-nonunif
group: miplib2010
method: 1

Gurobi 7.0.2 (linux64, Matlab) logging started Fri Apr 20 04:51:19 2018


Gurobi 7.0.2 (linux64) logging started Fri Apr 20 04:51:19 2018

Optimize a model with 1451912 rows, 23848 columns and 4366648 nonzeros
Coefficient statistics:
  Matrix range     [1e+00, 1e+00]
  Objective range  [1e+00, 1e+00]
  Bounds range     [1e+00, 1e+00]
  RHS range        [1e+00, 2e+02]
Presolve removed 7772 rows and 1285256 columns
Presolve time: 0.93s
Presolved: 16076 rows, 190504 columns, 443188 nonzeros

Iteration    Objective       Primal Inf.    Dual Inf.      Time
       0   -1.0300000e+02   0.000000e+00   3.280400e+04      1s
   35930    3.0033224e+00   0.000000e+00   9.323318e+04      5s
   61559    6.0000000e+00   0.000000e+00   0.000000e+00      8s

Solved in 61559 iterations and 7.80 seconds
Optimal objective  6.000000000e+00
status: OPTIMAL
